
===== New CPLEX run =====
Instance: /home/yorig/tuner/mpils-tests/instances/miplib/easy/mas74.mps
Config: /scratch/yorig/mpils-results-grid-ticks-10000-divide/easy/16proc/seed-4/5_mas74_seed-4_20260429_043455/expansion/config_param_CPXPARAM_MIP_Strategy_VariableSelect_-1_iter_1.prm
========================

Selected objective sense:  MINIMIZE
Selected objective  name:  obj
Selected RHS        name:  rhs
Selected bound      name:  bnd
Version identifier: 22.1.2.0 | 2024-11-26 | 0edbb82fd
CPXPARAM_Threads                                 8
CPXPARAM_Parallel                                1
CPXPARAM_MIP_Cuts_Cliques                        1
CPXPARAM_MIP_Strategy_VariableSelect             -1
CPXPARAM_MIP_Cuts_FlowCovers                     1
CPXPARAM_MIP_Cuts_Implied                        -1
CPXPARAM_MIP_Cuts_GUBCovers                      -1
CPXPARAM_MIP_Limits_GomoryCand                   10
CPXPARAM_MIP_Cuts_Gomory                         2
CPXPARAM_MIP_Cuts_PathCut                        2
CPXPARAM_MIP_Cuts_MIRCut                         -1
CPXPARAM_MIP_Cuts_Disjunctive                    2
CPXPARAM_Emphasis_MIP                            3
CPXPARAM_DetTimeLimit                            10000
Found incumbent of value 157344.610330 after 0.00 sec. (0.02 ticks)
Tried aggregator 1 time.
MIP Presolve eliminated 0 rows and 3 columns.
Reduced MIP has 13 rows, 148 columns, and 1682 nonzeros.
Reduced MIP has 145 binaries, 2 generals, 0 SOSs, and 0 indicators.
Presolve time = 0.00 sec. (0.84 ticks)
Probing time = 0.00 sec. (0.09 ticks)
Tried aggregator 1 time.
Detecting symmetries...
Reduced MIP has 13 rows, 148 columns, and 1682 nonzeros.
Reduced MIP has 145 binaries, 2 generals, 0 SOSs, and 0 indicators.
Presolve time = 0.00 sec. (0.79 ticks)
Probing time = 0.00 sec. (0.09 ticks)
MIP emphasis: best bound.
MIP search method: dynamic search.
Parallel mode: deterministic, using up to 8 threads.
Root relaxation solution time = 0.12 sec. (0.72 ticks)

        Nodes                                         Cuts/
   Node  Left     Objective  IInf  Best Integer    Best Bound    ItCnt     Gap

*     0+    0                       157344.6103        0.0000           100.00%
*     0+    0                        51840.4943        0.0000           100.00%
      0     0    10482.7953    12    51840.4943    10482.7953       43   79.78%
*     0+    0                        19197.4680    10482.7953            45.39%
      0     0    10526.7004    13    19197.4680      Fract: 1       51   45.17%
*     0+    0                        14901.6028    10526.7004            29.36%
      0     0    10549.2365    14    14901.6028      Fract: 1       59   29.21%
*     0+    0                        14692.2744    10549.2365            28.20%
      0     0    10553.2582    15    14692.2744      Fract: 1       65   28.17%
      0     0    10557.5476    16    14692.2744      Fract: 1       71   28.14%
      0     0    10560.8992    16    14692.2744      Fract: 1       79   28.12%
Detecting symmetries...
      0     0    10564.8486    16    14692.2744   LiftProj: 1       87   28.09%
*     0+    0                        13886.0272    10564.8486            23.92%
      0     0    10567.6171    17    13886.0272   LiftProj: 1       92   23.90%
      0     0    10568.6950    18    13886.0272   LiftProj: 1       97   23.89%
      0     0    10569.2729    19    13886.0272   LiftProj: 1      100   23.89%
      0     0    10569.3085    20    13886.0272   LiftProj: 1      102   23.89%
*     0+    0                        12180.1000    10569.3085            13.22%
Detecting symmetries...

Repeating presolve.
Tried aggregator 1 time.
MIP Presolve eliminated 0 rows and 42 columns.
Reduced MIP has 13 rows, 106 columns, and 1144 nonzeros.
Reduced MIP has 104 binaries, 1 generals, 0 SOSs, and 0 indicators.
Presolve time = 0.00 sec. (0.40 ticks)
Probing time = 0.00 sec. (0.06 ticks)
Tried aggregator 1 time.
Detecting symmetries...
Reduced MIP has 13 rows, 106 columns, and 1144 nonzeros.
Reduced MIP has 104 binaries, 1 generals, 0 SOSs, and 0 indicators.
Presolve time = 0.00 sec. (0.52 ticks)
Represolve time = 0.00 sec. (2.38 ticks)
Probing time = 0.00 sec. (0.06 ticks)
MIP emphasis: best bound.
MIP search method: dynamic search.
Parallel mode: deterministic, using up to 8 threads.
Root relaxation solution time = 0.00 sec. (1.03 ticks)

        Nodes                                         Cuts/
   Node  Left     Objective  IInf  Best Integer    Best Bound    ItCnt     Gap

*     0+    0                        12180.1000    10569.3085            13.22%
      0     0    10569.3085    20    12180.1000    10569.3085      160   13.22%
      0     0    10571.0277    21    12180.1000   LiftProj: 1      165   13.21%
      0     0    10572.9226    21    12180.1000   LiftProj: 1      174   13.20%
      0     0    10574.9576    21    12180.1000   LiftProj: 1      180   13.18%
      0     0    10575.9049    21    12180.1000   LiftProj: 1      183   13.17%
      0     0    10576.5454    21    12180.1000   LiftProj: 1      187   13.17%
      0     0    10578.4562    20    12180.1000   LiftProj: 1      193   13.15%
      0     0    10578.9615    21    12180.1000   LiftProj: 1      197   13.15%
Detecting symmetries...
      0     2    10578.9615    21    12180.1000    10578.9615      197   13.15%
Elapsed time = 1.63 sec. (77.57 ticks, tree = 0.02 MB, solutions = 7)

Performing restart 1

Repeating presolve.
Tried aggregator 1 time.
MIP Presolve eliminated 0 rows and 1 columns.
Reduced MIP has 13 rows, 105 columns, and 1131 nonzeros.
Reduced MIP has 103 binaries, 1 generals, 0 SOSs, and 0 indicators.
Presolve time = 0.00 sec. (0.38 ticks)
Tried aggregator 1 time.
Reduced MIP has 13 rows, 105 columns, and 1131 nonzeros.
Reduced MIP has 103 binaries, 1 generals, 0 SOSs, and 0 indicators.
Presolve time = 0.00 sec. (0.51 ticks)
Represolve time = 0.01 sec. (3.01 ticks)
   9464  5540    10751.8900    13    12180.1000    10712.8904    32907   12.05%
  22426 16349    10965.6385    12    12180.1000    10759.5037    73014   11.66%
  35705 27040    11494.4299     7    12180.1000    10783.9353   112459   11.46%
* 36515+28522                        11931.6944    10784.7834             9.61%
* 36958+30935                        11801.1857    10784.7834             8.61%
  43281 36600    10854.7151    12    11801.1857    10793.5311   147605    8.54%
  50093 44245    10847.0797    12    11801.1857    10793.5311   175535    8.54%
  57036 51159    11350.2258    11    11801.1857    10793.5311   199402    8.54%
  66647 55031    10883.5929    12    11801.1857    10795.9964   215715    8.52%

Performing restart 2

Repeating presolve.
Tried aggregator 1 time.
MIP Presolve eliminated 0 rows and 9 columns.
Reduced MIP has 13 rows, 96 columns, and 1017 nonzeros.
Reduced MIP has 94 binaries, 1 generals, 0 SOSs, and 0 indicators.
Presolve time = 0.00 sec. (0.34 ticks)
Tried aggregator 1 time.
Reduced MIP has 13 rows, 96 columns, and 1017 nonzeros.
Reduced MIP has 94 binaries, 1 generals, 0 SOSs, and 0 indicators.
Presolve time = 0.00 sec. (0.45 ticks)
Represolve time = 0.03 sec. (3.92 ticks)
  75026  3852    11025.2601    12    11801.1857    10828.5701   265944    8.24%
  86442 13055    10916.1662    13    11801.1857    10828.5701   301449    8.24%
 134523 55929    10872.8898    12    11801.1857    10829.9997   456582    8.23%
Elapsed time = 12.78 sec. (3177.15 ticks, tree = 12.10 MB, solutions = 10)
 183020 101209    10917.1241    12    11801.1857    10874.9900   613808    7.85%
 231782 147758    11189.4788    10    11801.1857    10902.9491   775935    7.61%
 280629 192971    10938.7544    12    11801.1857    10922.9610   931879    7.44%
 329433 233201    10991.9864    10    11801.1857    10939.3133  1071079    7.30%
 378036 281860    11523.0491    11    11801.1857    10952.1114  1242845    7.19%
 426743 325421    11201.0546    11    11801.1857    10963.4921  1397126    7.10%
 473693 361827    11018.2270    11    11801.1857    10973.9494  1523737    7.01%

Clique cuts applied:  0
Cover cuts applied:  87
Flow cuts applied:  0
Flow path cuts applied:  0
Lift and project cuts applied:  12
Gomory fractional cuts applied:  2
Disjunctive cuts applied:  0
Cone linearizations applied:  0

Root node processing (before b&c):
  Real time             =    1.52 sec. (77.52 ticks)
Parallel b&c, 8 threads:
  Real time             =   28.58 sec. (9923.41 ticks)
  Sync time (average)   =   11.13 sec.
  Wait time (average)   =    0.70 sec.
                          ------------
Total (root+branch&cut) =   30.10 sec. (10000.93 ticks)
Gap: 6.98%
Upper bound: 11801.2
Lower bound: 10977.6
End of CPLEX run. Time: 30.1479 seconds
